db/data/19931624918780219171884220777317366052.z3.out
-------------------
2500.184387346
